SAT
-98 71 6 -128 22 -10 -82 -77 17 -102 -96 -33 -7 52 -19 -133 -122 -40 -59 -44 74 -62 -121 -120 15 -11 -75 -55 -53 60 136 70 -73 -124 132 114 -28 146 -117 -88 9 -37 -57 -69 -24 85 144 -14 -4 -39 -113 87 -147 150 131 112 -51 -149 26 -89 20 31 -145 92 -48 107 126 -106 108 -83 -138 27 143 56 -42 -119 -86 -67 -68 134 -23 -32 -58 -91 97 -66 -63 130 -13 18 -2 76 101 -111 -72 49 3 93 -95 34 125 5 25 90 -103 30 -16 12 94 -36 8 81 -99 -61 38 41 116 129 -45 -1 21 80 -46 29 -64 -141 142 -105 123 137 -43 148 78 54 139 35 -118 135 109 -84 -50 -47 127 115 -65 -110 -79 -104 -100 140 0
